1455.36
0 13 33 12 59 10 42 46 66 16 18 71 23 44 50 68 30 48 62 15 63 37 65 57 38 51 3 21 22 61 1 6 5 8 19 69 54 56 4 55 41 72 2 43 14 70 73 47 29 7 24 45 60 52 64 58 27 36 20 34 74 32 39 9 25 28 49 67 31 35 53 11 40 26 17
